(set-info :smt-lib-version 2.6)
(set-logic QF_LRA)
(set-info :source |
TLP-GP automated DTP to SMT-LIB encoding for planning
by F.Maris and P.Regnier, IRIT - Universite Paul Sabatier, Toulouse

|)
(set-info :category "industrial")
(set-info :status sat)
(declare-fun St_spy_variable () Real)
(declare-fun t_Init_0 () Real)
(declare-fun t_Goal_4 () Real)
(declare-fun t_C_rb_ga1_gc1_3 () Real)
(declare-fun t_A_ra_ga2_gb1_1 () Real)
(declare-fun t_B_ra_rb_gb2_2 () Real)
(declare-fun t_C_rb_ga1_gc2_3 () Real)
(declare-fun t_A_ra_ga3_gb1_1 () Real)
(declare-fun t_B_ra_rb_gb3_2 () Real)
(declare-fun t_C_rb_ga1_gc3_3 () Real)
(declare-fun t_A_ra_ga4_gb1_1 () Real)
(declare-fun t_B_ra_rb_gb4_2 () Real)
(declare-fun t_C_rb_ga1_gc4_3 () Real)
(declare-fun t_A_ra_ga5_gb1_1 () Real)
(declare-fun t_B_ra_rb_gb5_2 () Real)
(declare-fun t_C_rb_ga1_gc5_3 () Real)
(declare-fun t_A_ra_ga6_gb1_1 () Real)
(declare-fun t_B_ra_rb_gb6_2 () Real)
(declare-fun t_A_ra_ga1_gb1_1 () Real)
(declare-fun t_B_ra_rb_gb1_2 () Real)
(declare-fun t_C_rb_ga1_gc6_3 () Real)
(assert (let ((?v_9 (- t_Goal_4 t_C_rb_ga1_gc1_3)) (?v_10 (- t_Goal_4 t_A_ra_ga2_gb1_1)) (?v_18 (- t_Goal_4 t_B_ra_rb_gb2_2)) (?v_20 (- t_Goal_4 t_C_rb_ga1_gc2_3)) (?v_21 (- t_Goal_4 t_A_ra_ga3_gb1_1)) (?v_23 (- t_Goal_4 t_B_ra_rb_gb3_2)) (?v_25 (- t_Goal_4 t_C_rb_ga1_gc3_3)) (?v_26 (- t_Goal_4 t_A_ra_ga4_gb1_1)) (?v_28 (- t_Goal_4 t_B_ra_rb_gb4_2)) (?v_30 (- t_Goal_4 t_C_rb_ga1_gc4_3)) (?v_31 (- t_Goal_4 t_A_ra_ga5_gb1_1)) (?v_33 (- t_Goal_4 t_B_ra_rb_gb5_2)) (?v_35 (- t_Goal_4 t_C_rb_ga1_gc5_3)) (?v_36 (- t_Goal_4 t_A_ra_ga6_gb1_1)) (?v_38 (- t_Goal_4 t_B_ra_rb_gb6_2)) (?v_0 (- t_Goal_4 t_A_ra_ga1_gb1_1)) (?v_1 (- t_Goal_4 t_B_ra_rb_gb1_2)) (?v_41 (- t_Goal_4 t_C_rb_ga1_gc6_3)) (?v_39 (- t_B_ra_rb_gb1_2 t_A_ra_ga1_gb1_1))) (let ((?v_11 (< ?v_39 5)) (?v_37 (- t_B_ra_rb_gb6_2 t_A_ra_ga1_gb1_1))) (let ((?v_12 (< ?v_37 5)) (?v_32 (- t_B_ra_rb_gb5_2 t_A_ra_ga1_gb1_1))) (let ((?v_13 (< ?v_32 5)) (?v_27 (- t_B_ra_rb_gb4_2 t_A_ra_ga1_gb1_1))) (let ((?v_14 (< ?v_27 5)) (?v_22 (- t_B_ra_rb_gb3_2 t_A_ra_ga1_gb1_1))) (let ((?v_15 (< ?v_22 5)) (?v_17 (- t_B_ra_rb_gb2_2 t_A_ra_ga1_gb1_1))) (let ((?v_16 (< ?v_17 5)) (?v_40 (- t_C_rb_ga1_gc6_3 t_B_ra_rb_gb1_2))) (let ((?v_2 (< ?v_40 4)) (?v_34 (- t_C_rb_ga1_gc5_3 t_B_ra_rb_gb1_2))) (let ((?v_3 (< ?v_34 4)) (?v_29 (- t_C_rb_ga1_gc4_3 t_B_ra_rb_gb1_2))) (let ((?v_4 (< ?v_29 4)) (?v_24 (- t_C_rb_ga1_gc3_3 t_B_ra_rb_gb1_2))) (let ((?v_5 (< ?v_24 4)) (?v_19 (- t_C_rb_ga1_gc2_3 t_B_ra_rb_gb1_2))) (let ((?v_6 (< ?v_19 4)) (?v_8 (- t_C_rb_ga1_gc1_3 t_B_ra_rb_gb1_2))) (let ((?v_7 (< ?v_8 4)) (?v_42 (- t_A_ra_ga6_gb1_1 t_A_ra_ga1_gb1_1))) (let ((?v_182 (< ?v_42 5)) (?v_181 (> ?v_42 5))) (let ((?v_99 (or ?v_182 ?v_181)) (?v_43 (- t_A_ra_ga5_gb1_1 t_A_ra_ga1_gb1_1))) (let ((?v_173 (< ?v_43 5)) (?v_172 (> ?v_43 5))) (let ((?v_100 (or ?v_173 ?v_172)) (?v_44 (- t_A_ra_ga4_gb1_1 t_A_ra_ga1_gb1_1))) (let ((?v_160 (< ?v_44 5)) (?v_159 (> ?v_44 5))) (let ((?v_101 (or ?v_160 ?v_159)) (?v_45 (- t_A_ra_ga3_gb1_1 t_A_ra_ga1_gb1_1))) (let ((?v_139 (< ?v_45 5)) (?v_138 (> ?v_45 5))) (let ((?v_102 (or ?v_139 ?v_138)) (?v_46 (- t_A_ra_ga2_gb1_1 t_A_ra_ga1_gb1_1))) (let ((?v_94 (< ?v_46 5)) (?v_93 (> ?v_46 5)) (?v_69 (< ?v_39 1)) (?v_47 (> ?v_39 1))) (let ((?v_103 (or ?v_69 ?v_47)) (?v_63 (< ?v_0 6)) (?v_48 (- t_A_ra_ga1_gb1_1 t_A_ra_ga6_gb1_1))) (let ((?v_114 (> ?v_48 5)) (?v_49 (- t_A_ra_ga1_gb1_1 t_A_ra_ga5_gb1_1))) (let ((?v_115 (> ?v_49 5)) (?v_50 (- t_A_ra_ga1_gb1_1 t_A_ra_ga4_gb1_1))) (let ((?v_116 (> ?v_50 5)) (?v_51 (- t_A_ra_ga1_gb1_1 t_A_ra_ga3_gb1_1))) (let ((?v_117 (> ?v_51 5)) (?v_52 (- t_A_ra_ga1_gb1_1 t_A_ra_ga2_gb1_1))) (let ((?v_87 (> ?v_52 5)) (?v_105 (- t_C_rb_ga1_gc6_3 t_A_ra_ga1_gb1_1))) (let ((?v_104 (< ?v_105 4)) (?v_107 (- t_C_rb_ga1_gc5_3 t_A_ra_ga1_gb1_1))) (let ((?v_106 (< ?v_107 4)) (?v_109 (- t_C_rb_ga1_gc4_3 t_A_ra_ga1_gb1_1))) (let ((?v_108 (< ?v_109 4)) (?v_111 (- t_C_rb_ga1_gc3_3 t_A_ra_ga1_gb1_1))) (let ((?v_110 (< ?v_111 4)) (?v_113 (- t_C_rb_ga1_gc2_3 t_A_ra_ga1_gb1_1))) (let ((?v_112 (< ?v_113 4)) (?v_85 (- t_C_rb_ga1_gc1_3 t_A_ra_ga1_gb1_1))) (let ((?v_86 (< ?v_85 4)) (?v_53 (- t_B_ra_rb_gb6_2 t_B_ra_rb_gb1_2))) (let ((?v_184 (< ?v_53 4)) (?v_183 (> ?v_53 4))) (let ((?v_64 (or ?v_184 ?v_183)) (?v_54 (- t_B_ra_rb_gb5_2 t_B_ra_rb_gb1_2))) (let ((?v_177 (< ?v_54 4)) (?v_176 (> ?v_54 4))) (let ((?v_65 (or ?v_177 ?v_176)) (?v_55 (- t_B_ra_rb_gb4_2 t_B_ra_rb_gb1_2))) (let ((?v_166 (< ?v_55 4)) (?v_165 (> ?v_55 4))) (let ((?v_66 (or ?v_166 ?v_165)) (?v_56 (- t_B_ra_rb_gb3_2 t_B_ra_rb_gb1_2))) (let ((?v_151 (< ?v_56 4)) (?v_150 (> ?v_56 4))) (let ((?v_67 (or ?v_151 ?v_150)) (?v_57 (- t_B_ra_rb_gb2_2 t_B_ra_rb_gb1_2))) (let ((?v_123 (< ?v_57 4)) (?v_122 (> ?v_57 4))) (let ((?v_68 (or ?v_123 ?v_122)) (?v_58 (- t_B_ra_rb_gb1_2 t_B_ra_rb_gb6_2))) (let ((?v_80 (> ?v_58 4)) (?v_59 (- t_B_ra_rb_gb1_2 t_B_ra_rb_gb5_2))) (let ((?v_81 (> ?v_59 4)) (?v_60 (- t_B_ra_rb_gb1_2 t_B_ra_rb_gb4_2))) (let ((?v_82 (> ?v_60 4)) (?v_61 (- t_B_ra_rb_gb1_2 t_B_ra_rb_gb3_2))) (let ((?v_83 (> ?v_61 4)) (?v_62 (- t_B_ra_rb_gb1_2 t_B_ra_rb_gb2_2))) (let ((?v_84 (> ?v_62 4)) (?v_71 (- t_B_ra_rb_gb1_2 t_A_ra_ga6_gb1_1))) (let ((?v_70 (> ?v_71 1)) (?v_73 (- t_B_ra_rb_gb1_2 t_A_ra_ga5_gb1_1))) (let ((?v_72 (> ?v_73 1)) (?v_75 (- t_B_ra_rb_gb1_2 t_A_ra_ga4_gb1_1))) (let ((?v_74 (> ?v_75 1)) (?v_77 (- t_B_ra_rb_gb1_2 t_A_ra_ga3_gb1_1))) (let ((?v_76 (> ?v_77 1)) (?v_79 (- t_B_ra_rb_gb1_2 t_A_ra_ga2_gb1_1))) (let ((?v_78 (> ?v_79 1)) (?v_128 (or ?v_47 ?v_69)) (?v_180 (< ?v_71 1))) (let ((?v_129 (or ?v_70 ?v_180)) (?v_171 (< ?v_73 1))) (let ((?v_130 (or ?v_72 ?v_171)) (?v_158 (< ?v_75 1))) (let ((?v_131 (or ?v_74 ?v_158)) (?v_137 (< ?v_77 1))) (let ((?v_132 (or ?v_76 ?v_137)) (?v_92 (< ?v_79 1)) (?v_88 (- t_A_ra_ga6_gb1_1 t_A_ra_ga2_gb1_1)) (?v_89 (- t_A_ra_ga5_gb1_1 t_A_ra_ga2_gb1_1)) (?v_90 (- t_A_ra_ga4_gb1_1 t_A_ra_ga2_gb1_1)) (?v_91 (- t_A_ra_ga3_gb1_1 t_A_ra_ga2_gb1_1)) (?v_95 (- t_A_ra_ga2_gb1_1 t_A_ra_ga6_gb1_1)) (?v_96 (- t_A_ra_ga2_gb1_1 t_A_ra_ga5_gb1_1)) (?v_97 (- t_A_ra_ga2_gb1_1 t_A_ra_ga4_gb1_1)) (?v_98 (- t_A_ra_ga2_gb1_1 t_A_ra_ga3_gb1_1)) (?v_143 (or ?v_104 (> ?v_105 4))) (?v_179 (> ?v_107 4))) (let ((?v_144 (or ?v_106 ?v_179)) (?v_169 (> ?v_109 4))) (let ((?v_145 (or ?v_108 ?v_169)) (?v_155 (> ?v_111 4))) (let ((?v_146 (or ?v_110 ?v_155)) (?v_133 (> ?v_113 4)) (?v_118 (- t_B_ra_rb_gb6_2 t_B_ra_rb_gb2_2)) (?v_119 (- t_B_ra_rb_gb5_2 t_B_ra_rb_gb2_2)) (?v_120 (- t_B_ra_rb_gb4_2 t_B_ra_rb_gb2_2)) (?v_121 (- t_B_ra_rb_gb3_2 t_B_ra_rb_gb2_2)) (?v_124 (- t_B_ra_rb_gb2_2 t_B_ra_rb_gb6_2)) (?v_125 (- t_B_ra_rb_gb2_2 t_B_ra_rb_gb5_2)) (?v_126 (- t_B_ra_rb_gb2_2 t_B_ra_rb_gb4_2)) (?v_127 (- t_B_ra_rb_gb2_2 t_B_ra_rb_gb3_2)) (?v_134 (- t_A_ra_ga6_gb1_1 t_A_ra_ga3_gb1_1)) (?v_135 (- t_A_ra_ga5_gb1_1 t_A_ra_ga3_gb1_1)) (?v_136 (- t_A_ra_ga4_gb1_1 t_A_ra_ga3_gb1_1)) (?v_140 (- t_A_ra_ga3_gb1_1 t_A_ra_ga6_gb1_1)) (?v_141 (- t_A_ra_ga3_gb1_1 t_A_ra_ga5_gb1_1)) (?v_142 (- t_A_ra_ga3_gb1_1 t_A_ra_ga4_gb1_1)) (?v_147 (- t_B_ra_rb_gb6_2 t_B_ra_rb_gb3_2)) (?v_148 (- t_B_ra_rb_gb5_2 t_B_ra_rb_gb3_2)) (?v_149 (- t_B_ra_rb_gb4_2 t_B_ra_rb_gb3_2)) (?v_152 (- t_B_ra_rb_gb3_2 t_B_ra_rb_gb6_2)) (?v_153 (- t_B_ra_rb_gb3_2 t_B_ra_rb_gb5_2)) (?v_154 (- t_B_ra_rb_gb3_2 t_B_ra_rb_gb4_2)) (?v_156 (- t_A_ra_ga6_gb1_1 t_A_ra_ga4_gb1_1)) (?v_157 (- t_A_ra_ga5_gb1_1 t_A_ra_ga4_gb1_1)) (?v_161 (- t_A_ra_ga4_gb1_1 t_A_ra_ga6_gb1_1)) (?v_162 (- t_A_ra_ga4_gb1_1 t_A_ra_ga5_gb1_1)) (?v_163 (- t_B_ra_rb_gb6_2 t_B_ra_rb_gb4_2)) (?v_164 (- t_B_ra_rb_gb5_2 t_B_ra_rb_gb4_2)) (?v_167 (- t_B_ra_rb_gb4_2 t_B_ra_rb_gb6_2)) (?v_168 (- t_B_ra_rb_gb4_2 t_B_ra_rb_gb5_2)) (?v_170 (- t_A_ra_ga6_gb1_1 t_A_ra_ga5_gb1_1)) (?v_174 (- t_A_ra_ga5_gb1_1 t_A_ra_ga6_gb1_1)) (?v_175 (- t_B_ra_rb_gb6_2 t_B_ra_rb_gb5_2)) (?v_178 (- t_B_ra_rb_gb5_2 t_B_ra_rb_gb6_2))) (and (= St_spy_variable (+ 1 t_Init_0)) (>= t_Goal_4 t_Init_0) (>= (- t_C_rb_ga1_gc1_3 t_Init_0) 0) (>= ?v_9 1) (>= (- t_A_ra_ga2_gb1_1 t_Init_0) 0) (>= ?v_10 5) (>= (- t_B_ra_rb_gb2_2 t_Init_0) 0) (>= ?v_18 4) (>= (- t_C_rb_ga1_gc2_3 t_Init_0) 0) (>= ?v_20 1) (>= (- t_A_ra_ga3_gb1_1 t_Init_0) 0) (>= ?v_21 5) (>= (- t_B_ra_rb_gb3_2 t_Init_0) 0) (>= ?v_23 4) (>= (- t_C_rb_ga1_gc3_3 t_Init_0) 0) (>= ?v_25 1) (>= (- t_A_ra_ga4_gb1_1 t_Init_0) 0) (>= ?v_26 5) (>= (- t_B_ra_rb_gb4_2 t_Init_0) 0) (>= ?v_28 4) (>= (- t_C_rb_ga1_gc4_3 t_Init_0) 0) (>= ?v_30 1) (>= (- t_A_ra_ga5_gb1_1 t_Init_0) 0) (>= ?v_31 5) (>= (- t_B_ra_rb_gb5_2 t_Init_0) 0) (>= ?v_33 4) (>= (- t_C_rb_ga1_gc5_3 t_Init_0) 0) (>= ?v_35 1) (>= (- t_A_ra_ga6_gb1_1 t_Init_0) 0) (>= ?v_36 5) (>= (- t_B_ra_rb_gb6_2 t_Init_0) 0) (>= ?v_38 4) (>= (- t_A_ra_ga1_gb1_1 t_Init_0) 0) (>= ?v_0 5) (>= (- t_B_ra_rb_gb1_2 t_Init_0) 0) (>= ?v_1 4) (>= (- t_C_rb_ga1_gc6_3 t_Init_0) 0) (>= ?v_41 1) ?v_11 ?v_12 ?v_13 ?v_14 ?v_15 ?v_16 (>= ?v_0 6) ?v_2 ?v_3 ?v_4 ?v_5 ?v_6 ?v_7 (>= ?v_1 5) ?v_2 ?v_3 ?v_4 ?v_5 ?v_6 ?v_7 ?v_7 (>= ?v_8 0) (>= ?v_9 2) (>= ?v_10 6) ?v_11 ?v_12 ?v_13 ?v_14 ?v_15 ?v_16 ?v_16 (>= ?v_17 0) (>= ?v_18 5) ?v_2 ?v_3 ?v_4 ?v_5 ?v_6 ?v_6 (>= ?v_19 0) (>= ?v_20 2) (>= ?v_21 6) ?v_11 ?v_12 ?v_13 ?v_14 ?v_15 ?v_15 (>= ?v_22 0) (>= ?v_23 5) ?v_2 ?v_3 ?v_4 ?v_5 ?v_5 (>= ?v_24 0) (>= ?v_25 2) (>= ?v_26 6) ?v_11 ?v_12 ?v_13 ?v_14 ?v_14 (>= ?v_27 0) (>= ?v_28 5) ?v_2 ?v_3 ?v_4 ?v_4 (>= ?v_29 0) (>= ?v_30 2) (>= ?v_31 6) ?v_11 ?v_12 ?v_13 ?v_13 (>= ?v_32 0) (>= ?v_33 5) ?v_2 ?v_3 ?v_3 (>= ?v_34 0) (>= ?v_35 2) (>= ?v_36 6) ?v_11 ?v_12 ?v_12 (>= ?v_37 0) (>= ?v_38 5) ?v_11 (>= ?v_39 0) ?v_2 (>= ?v_40 0) (>= ?v_41 2) ?v_99 ?v_100 ?v_101 ?v_102 (or ?v_94 ?v_93) ?v_103 (or ?v_63 ?v_47) (or ?v_114 (< ?v_48 5)) (or ?v_115 (< ?v_49 5)) (or ?v_116 (< ?v_50 5)) (or ?v_117 (< ?v_51 5)) (or ?v_87 (< ?v_52 5)) (or ?v_104 (< ?v_41 2)) (or ?v_106 (< ?v_35 2)) (or ?v_108 (< ?v_30 2)) (or ?v_110 (< ?v_25 2)) (or ?v_112 (< ?v_20 2)) (or ?v_86 (< ?v_9 2)) ?v_64 ?v_65 ?v_66 ?v_67 ?v_68 (or ?v_80 (< ?v_58 4)) (or ?v_81 (< ?v_59 4)) (or ?v_82 (< ?v_60 4)) (or ?v_83 (< ?v_61 4)) (or ?v_84 (< ?v_62 4)) (or ?v_47 ?v_63) (or ?v_70 (< ?v_36 6)) (or ?v_72 (< ?v_31 6)) (or ?v_74 (< ?v_26 6)) (or ?v_76 (< ?v_21 6)) (or ?v_78 (< ?v_10 6)) ?v_64 ?v_65 ?v_66 ?v_67 ?v_68 ?v_128 ?v_129 ?v_130 ?v_131 ?v_132 (or ?v_78 ?v_92) (or ?v_80 (< (- t_C_rb_ga1_gc1_3 t_B_ra_rb_gb6_2) 4)) (or ?v_81 (< (- t_C_rb_ga1_gc1_3 t_B_ra_rb_gb5_2) 4)) (or ?v_82 (< (- t_C_rb_ga1_gc1_3 t_B_ra_rb_gb4_2) 4)) (or ?v_83 (< (- t_C_rb_ga1_gc1_3 t_B_ra_rb_gb3_2) 4)) (or ?v_84 (< (- t_C_rb_ga1_gc1_3 t_B_ra_rb_gb2_2) 4)) (or (> ?v_85 4) ?v_86) (or (< ?v_79 5) ?v_87) (or (< (- t_B_ra_rb_gb6_2 t_A_ra_ga2_gb1_1) 5) ?v_87) (or (< ?v_88 5) (> ?v_88 5)) (or (< (- t_B_ra_rb_gb5_2 t_A_ra_ga2_gb1_1) 5) ?v_87) (or (< ?v_89 5) (> ?v_89 5)) (or (< (- t_B_ra_rb_gb4_2 t_A_ra_ga2_gb1_1) 5) ?v_87) (or (< ?v_90 5) (> ?v_90 5)) (or (< (- t_B_ra_rb_gb3_2 t_A_ra_ga2_gb1_1) 5) ?v_87) (or (< ?v_91 5) (> ?v_91 5)) (or (< (- t_B_ra_rb_gb2_2 t_A_ra_ga2_gb1_1) 5) ?v_87) (or ?v_92 ?v_78) (or ?v_93 ?v_94) (or (> ?v_95 5) (< ?v_95 5)) (or (> ?v_96 5) (< ?v_96 5)) (or (> ?v_97 5) (< ?v_97 5)) (or (> ?v_98 5) (< ?v_98 5)) ?v_99 ?v_100 ?v_101 ?v_102 ?v_103 ?v_143 ?v_144 ?v_145 ?v_146 (or ?v_112 ?v_133) (or ?v_114 (< (- t_B_ra_rb_gb2_2 t_A_ra_ga6_gb1_1) 5)) (or ?v_115 (< (- t_B_ra_rb_gb2_2 t_A_ra_ga5_gb1_1) 5)) (or ?v_116 (< (- t_B_ra_rb_gb2_2 t_A_ra_ga4_gb1_1) 5)) (or ?v_117 (< (- t_B_ra_rb_gb2_2 t_A_ra_ga3_gb1_1) 5)) (or (< (- t_C_rb_ga1_gc6_3 t_B_ra_rb_gb2_2) 4) ?v_84) (or (< ?v_118 4) (> ?v_118 4)) (or (< (- t_C_rb_ga1_gc5_3 t_B_ra_rb_gb2_2) 4) ?v_84) (or (< ?v_119 4) (> ?v_119 4)) (or (< (- t_C_rb_ga1_gc4_3 t_B_ra_rb_gb2_2) 4) ?v_84) (or (< ?v_120 4) (> ?v_120 4)) (or (< (- t_C_rb_ga1_gc3_3 t_B_ra_rb_gb2_2) 4) ?v_84) (or (< ?v_121 4) (> ?v_121 4)) (or (< (- t_C_rb_ga1_gc2_3 t_B_ra_rb_gb2_2) 4) ?v_84) (or ?v_122 ?v_123) (or (> ?v_124 4) (< ?v_124 4)) (or (> ?v_125 4) (< ?v_125 4)) (or (> ?v_126 4) (< ?v_126 4)) (or (> ?v_127 4) (< ?v_127 4)) ?v_64 ?v_65 ?v_66 ?v_67 ?v_128 ?v_129 ?v_130 ?v_131 ?v_132 (or ?v_80 (< (- t_C_rb_ga1_gc2_3 t_B_ra_rb_gb6_2) 4)) (or ?v_81 (< (- t_C_rb_ga1_gc2_3 t_B_ra_rb_gb5_2) 4)) (or ?v_82 (< (- t_C_rb_ga1_gc2_3 t_B_ra_rb_gb4_2) 4)) (or ?v_83 (< (- t_C_rb_ga1_gc2_3 t_B_ra_rb_gb3_2) 4)) (or ?v_133 ?v_112) (or (< ?v_77 5) ?v_117) (or (< (- t_B_ra_rb_gb6_2 t_A_ra_ga3_gb1_1) 5) ?v_117) (or (< ?v_134 5) (> ?v_134 5)) (or (< (- t_B_ra_rb_gb5_2 t_A_ra_ga3_gb1_1) 5) ?v_117) (or (< ?v_135 5) (> ?v_135 5)) (or (< (- t_B_ra_rb_gb4_2 t_A_ra_ga3_gb1_1) 5) ?v_117) (or (< ?v_136 5) (> ?v_136 5)) (or (< (- t_B_ra_rb_gb3_2 t_A_ra_ga3_gb1_1) 5) ?v_117) (or ?v_137 ?v_76) (or ?v_138 ?v_139) (or (> ?v_140 5) (< ?v_140 5)) (or (> ?v_141 5) (< ?v_141 5)) (or (> ?v_142 5) (< ?v_142 5)) ?v_99 ?v_100 ?v_101 ?v_103 ?v_143 ?v_144 ?v_145 ?v_146 (or ?v_114 (< (- t_B_ra_rb_gb3_2 t_A_ra_ga6_gb1_1) 5)) (or ?v_115 (< (- t_B_ra_rb_gb3_2 t_A_ra_ga5_gb1_1) 5)) (or ?v_116 (< (- t_B_ra_rb_gb3_2 t_A_ra_ga4_gb1_1) 5)) (or (< (- t_C_rb_ga1_gc6_3 t_B_ra_rb_gb3_2) 4) ?v_83) (or (< ?v_147 4) (> ?v_147 4)) (or (< (- t_C_rb_ga1_gc5_3 t_B_ra_rb_gb3_2) 4) ?v_83) (or (< ?v_148 4) (> ?v_148 4)) (or (< (- t_C_rb_ga1_gc4_3 t_B_ra_rb_gb3_2) 4) ?v_83) (or (< ?v_149 4) (> ?v_149 4)) (or (< (- t_C_rb_ga1_gc3_3 t_B_ra_rb_gb3_2) 4) ?v_83) (or ?v_150 ?v_151) (or (> ?v_152 4) (< ?v_152 4)) (or (> ?v_153 4) (< ?v_153 4)) (or (> ?v_154 4) (< ?v_154 4)) ?v_64 ?v_65 ?v_66 ?v_128 ?v_129 ?v_130 ?v_131 (or ?v_80 (< (- t_C_rb_ga1_gc3_3 t_B_ra_rb_gb6_2) 4)) (or ?v_81 (< (- t_C_rb_ga1_gc3_3 t_B_ra_rb_gb5_2) 4)) (or ?v_82 (< (- t_C_rb_ga1_gc3_3 t_B_ra_rb_gb4_2) 4)) (or ?v_155 ?v_110) (or (< ?v_75 5) ?v_116) (or (< (- t_B_ra_rb_gb6_2 t_A_ra_ga4_gb1_1) 5) ?v_116) (or (< ?v_156 5) (> ?v_156 5)) (or (< (- t_B_ra_rb_gb5_2 t_A_ra_ga4_gb1_1) 5) ?v_116) (or (< ?v_157 5) (> ?v_157 5)) (or (< (- t_B_ra_rb_gb4_2 t_A_ra_ga4_gb1_1) 5) ?v_116) (or ?v_158 ?v_74) (or ?v_159 ?v_160) (or (> ?v_161 5) (< ?v_161 5)) (or (> ?v_162 5) (< ?v_162 5)) ?v_99 ?v_100 ?v_103 ?v_143 ?v_144 ?v_145 (or ?v_114 (< (- t_B_ra_rb_gb4_2 t_A_ra_ga6_gb1_1) 5)) (or ?v_115 (< (- t_B_ra_rb_gb4_2 t_A_ra_ga5_gb1_1) 5)) (or (< (- t_C_rb_ga1_gc6_3 t_B_ra_rb_gb4_2) 4) ?v_82) (or (< ?v_163 4) (> ?v_163 4)) (or (< (- t_C_rb_ga1_gc5_3 t_B_ra_rb_gb4_2) 4) ?v_82) (or (< ?v_164 4) (> ?v_164 4)) (or (< (- t_C_rb_ga1_gc4_3 t_B_ra_rb_gb4_2) 4) ?v_82) (or ?v_165 ?v_166) (or (> ?v_167 4) (< ?v_167 4)) (or (> ?v_168 4) (< ?v_168 4)) ?v_64 ?v_65 ?v_128 ?v_129 ?v_130 (or ?v_80 (< (- t_C_rb_ga1_gc4_3 t_B_ra_rb_gb6_2) 4)) (or ?v_81 (< (- t_C_rb_ga1_gc4_3 t_B_ra_rb_gb5_2) 4)) (or ?v_169 ?v_108) (or (< ?v_73 5) ?v_115) (or (< (- t_B_ra_rb_gb6_2 t_A_ra_ga5_gb1_1) 5) ?v_115) (or (< ?v_170 5) (> ?v_170 5)) (or (< (- t_B_ra_rb_gb5_2 t_A_ra_ga5_gb1_1) 5) ?v_115) (or ?v_171 ?v_72) (or ?v_172 ?v_173) (or (> ?v_174 5) (< ?v_174 5)) ?v_99 ?v_103 ?v_143 ?v_144 (or ?v_114 (< (- t_B_ra_rb_gb5_2 t_A_ra_ga6_gb1_1) 5)) (or (< (- t_C_rb_ga1_gc6_3 t_B_ra_rb_gb5_2) 4) ?v_81) (or (< ?v_175 4) (> ?v_175 4)) (or (< (- t_C_rb_ga1_gc5_3 t_B_ra_rb_gb5_2) 4) ?v_81) (or ?v_176 ?v_177) (or (> ?v_178 4) (< ?v_178 4)) ?v_64 ?v_128 ?v_129 (or ?v_80 (< (- t_C_rb_ga1_gc5_3 t_B_ra_rb_gb6_2) 4)) (or ?v_179 ?v_106) (or (< ?v_71 5) ?v_114) (or (< (- t_B_ra_rb_gb6_2 t_A_ra_ga6_gb1_1) 5) ?v_114) (or ?v_180 ?v_70) (or ?v_181 ?v_182) ?v_103 ?v_143 (or (< (- t_C_rb_ga1_gc6_3 t_B_ra_rb_gb6_2) 4) ?v_80) (or ?v_183 ?v_184) ?v_103 ?v_143)))))))))))))))))))))))))))))))))))))))))))))))))))))))))))))))
(check-sat)
(exit)
